Route #1: 1 94 411 375 215 382 211 298 397 520 450 459 1 
Route #2: 1 169 406 257 76 491 1 
Route #3: 1 82 220 288 225 409 469 255 236 336 335 374 518 502 426 370 1 
Route #4: 1 481 365 309 216 403 471 45 477 519 308 338 522 284 1 
Route #5: 1 118 93 413 448 366 330 1 
Route #6: 1 187 493 337 346 286 376 223 402 1 
Route #7: 1 101 299 480 207 511 230 265 458 283 431 372 486 232 367 1 
Route #8: 1 472 31 497 250 314 304 227 360 262 310 368 352 1 
Route #9: 1 487 122 373 111 320 1 
Route #10: 1 327 464 438 15 290 278 351 242 1 
Route #11: 1 144 508 333 206 331 334 342 414 245 521 213 315 359 1 
Route #12: 1 369 248 65 229 276 1 
Route #13: 1 404 506 33 184 1 
Route #14: 1 349 5 266 300 498 273 364 272 466 339 416 264 441 432 1 
Route #15: 1 455 244 108 302 321 348 219 386 1 
Route #16: 1 48 405 422 297 470 430 484 1 
Route #17: 1 468 347 510 26 504 496 384 387 1 
Route #18: 1 21 221 515 287 279 446 280 1 
Route #19: 1 454 79 317 501 307 457 274 423 514 270 421 1 
Route #20: 1 121 420 357 354 494 292 356 1 
Route #21: 1 27 428 277 148 1 
Route #22: 1 161 231 291 303 400 475 235 388 1 
Route #23: 1 3 294 353 451 489 434 447 332 1 
Route #24: 1 64 249 512 311 401 463 226 483 237 393 1 
Route #25: 1 179 218 254 424 425 275 228 499 379 1 
Route #26: 1 86 285 247 490 523 316 1 
Route #27: 1 78 488 319 281 437 380 222 358 482 385 212 445 1 
Route #28: 1 362 238 340 371 209 394 350 509 419 296 418 117 1 
Route #29: 1 172 443 268 344 417 345 210 381 476 217 1 
Route #30: 1 263 96 328 427 473 390 312 1 
Route #31: 1 68 125 452 1 
Route #32: 1 204 103 1 
Route #33: 1 107 224 341 492 456 289 474 326 1 
Route #34: 1 138 301 408 377 260 267 293 295 252 449 306 465 516 261 503 1 
Route #35: 1 139 495 282 442 208 343 1 
Route #36: 1 114 440 479 444 435 305 500 433 1 
Route #37: 1 67 412 395 318 324 329 233 429 1 
Route #38: 1 36 355 258 240 407 271 1 
Route #39: 1 59 389 253 49 1 
Route #40: 1 24 30 361 453 1 
Route #41: 1 50 269 398 246 243 478 323 1 
Route #42: 1 105 415 396 485 439 313 517 1 
Route #43: 1 177 436 259 467 383 391 256 325 1 
Route #44: 1 1 410 363 460 392 1 
Route #45: 1 202 399 251 234 513 505 241 507 1 
Route #46: 1 47 191 1 
Route #47: 1 193 461 322 214 462 239 378 1 
Route #48: 1 99 205 1 
Route #49: 1 81 104 1 
Route #50: 1 62 1 
Route #51: 1 110 1 
Route #52: 1 102 188 1 
Route #53: 1 132 200 1 
Route #54: 1 40 131 1 
Route #55: 1 52 154 1 
Route #56: 1 167 89 1 
Route #57: 1 73 1 
Route #58: 1 61 1 
Route #59: 1 87 127 1 
Route #60: 1 160 1 
Route #61: 1 58 137 1 
Route #62: 1 44 1 
Route #63: 1 98 1 
Route #64: 1 72 1 
Route #65: 1 9 1 
Route #66: 1 183 1 
Route #67: 1 60 1 
Route #68: 1 149 1 
Route #69: 1 129 1 
Route #70: 1 173 1 
Route #71: 1 32 1 
Route #72: 1 29 4 1 
Route #73: 1 100 1 
Route #74: 1 84 164 1 
Route #75: 1 95 1 
Route #76: 1 198 90 1 
Route #77: 1 53 1 
Route #78: 1 70 66 1 
Route #79: 1 55 133 1 
Route #80: 1 197 1 
Route #81: 1 128 1 
Route #82: 1 109 1 
Route #83: 1 28 88 1 
Route #84: 1 83 1 
Route #85: 1 69 1 
Route #86: 1 134 1 
Route #87: 1 7 1 
Route #88: 1 130 159 1 
Route #89: 1 165 1 
Route #90: 1 63 1 
Route #91: 1 120 42 1 
Route #92: 1 12 171 1 
Route #93: 1 16 1 
Route #94: 1 150 1 
Route #95: 1 6 1 
Route #96: 1 57 123 1 
Route #97: 1 51 168 1 
Route #98: 1 162 1 
Route #99: 1 136 1 
Route #100: 1 2 175 1 
Route #101: 1 157 1 
Route #102: 1 41 1 
Route #103: 1 124 141 1 
Route #104: 1 156 1 
Route #105: 1 189 142 1 
Route #106: 1 178 126 1 
Route #107: 1 23 1 
Route #108: 1 152 1 
Route #109: 1 186 1 
Route #110: 1 19 1 
Route #111: 1 140 1 
Route #112: 1 203 1 
Route #113: 1 34 1 
Route #114: 1 185 155 1 
Route #115: 1 38 1 
Route #116: 1 166 1 
Route #117: 1 97 1 
Route #118: 1 195 1 
Route #119: 1 35 1 
Route #120: 1 119 1 
Route #121: 1 85 1 
Route #122: 1 158 1 
Route #123: 1 106 1 
Route #124: 1 190 1 
Route #125: 1 174 1 
Route #126: 1 116 1 
Route #127: 1 39 1 
Route #128: 1 18 1 
Route #129: 1 146 1 
Route #130: 1 112 1 
Route #131: 1 181 1 
Route #132: 1 115 1 
Route #133: 1 92 1 
Route #134: 1 20 1 
Route #135: 1 80 1 
Route #136: 1 75 1 
Route #137: 1 143 1 
Route #138: 1 14 199 1 
Route #139: 1 43 1 
Route #140: 1 163 1 
Route #141: 1 11 1 
Route #142: 1 145 201 1 
Route #143: 1 10 1 
Route #144: 1 74 151 1 
Route #145: 1 91 1 
Route #146: 1 13 1 
Route #147: 1 54 1 
Route #148: 1 113 1 
Route #149: 1 176 1 
Route #150: 1 46 1 
Route #151: 1 196 1 
Route #152: 1 77 1 
Route #153: 1 153 25 1 
Route #154: 1 147 1 
Route #155: 1 37 1 
Route #156: 1 180 1 
Route #157: 1 17 1 
Route #158: 1 22 1 
Route #159: 1 56 1 
Route #160: 1 192 1 
Route #161: 1 170 1 
Route #162: 1 182 1 
Route #163: 1 8 1 
Route #164: 1 194 1 
Route #165: 1 135 1 
Route #166: 1 71 1 

Cost 297412
Time 30.7120


 * Another infos *

 Iterations: 524 Time: 30.7120 sec - 0.5119 min - 0.0085 horas
0.0000 h 0.5119 min
Problem dimension: 524
